20
3
20315
254 428 65
false
0.25
10 15 46 6 33 10 18 11 32 37 24 48 13 36 29 8 28 18 22 30
22 7 15 14 2 15 36 34 19 44 43 44 18 45 45 13 50 23 43 26
40 50 13 37 3 49 34 39 14 36 46 21 36 15 48 2 47 1 25 16
8 6 69 70 49 19 16 22 79 51 94 41 87 100 51 81 49 8 20 63
0 0 0 0 40 31 0 0 0 0 49 0 0 0 0 0 52 45 0 12
0 0 0 0 0 0 63 0 0 0 43 0 0 25 16 0 0 0 0
0 0 0 82 0 30 0 11 0 0 0 43 0 0 0 0 0 0
0 0 30 0 0 0 0 0 0 0 0 71 0 0 0 0 0
0 0 33 0 0 0 0 76 0 0 0 0 0 0 0 0
0 0 0 69 0 0 0 0 0 0 0 38 0 26 0
0 0 0 0 90 64 0 0 0 0 53 0 0 0
0 66 0 94 79 0 0 0 0 0 0 0 0
0 0 0 0 0 43 0 0 0 0 0 60
0 1 0 0 0 33 0 0 0 0 0
0 0 0 0 0 0 58 53 0 0
0 0 0 40 0 0 0 0 0
0 0 0 45 0 0 0 72
0 0 0 35 0 0 0
0 0 0 0 0 0
0 25 0 0 0
0 60 0 0
0 0 0
0 0
0 0 75 0 0 31 0 0 49 0 0 94 0 0 0 0 0 0 20
0 0 0 0 0 0 0 0 0 0 7 0 0 0 39 0 0 0
0 0 0 0 0 85 0 9 0 35 41 0 0 48 68 0 2
0 0 0 0 0 0 98 88 0 0 0 9 2 16 0 0
0 2 0 0 0 0 62 0 0 0 97 95 0 0 0
0 70 0 0 95 0 0 0 24 0 0 0 0 0
0 0 66 0 0 0 0 0 14 12 81 0 0
0 0 0 87 0 0 75 0 0 0 0 0
0 0 0 2 0 12 0 0 0 61 20
0 0 0 0 0 0 0 23 0 0
0 0 54 0 0 0 34 40 0
0 65 63 0 0 0 0 0
0 0 23 33 85 75 0
0 0 0 0 83 39
0 77 0 0 0
0 4 92 0
0 0 0
0 0
0
0 37 0 0 0 19 23 0 0 0 0 1 86 26 0 0 20 0
0 0 0 0 0 0 0 0 0 0 0 0 20 0 0 0 0
0 0 51 34 0 0 40 0 0 95 0 0 0 0 48 0
0 0 0 57 14 0 27 0 11 0 0 0 0 53 0
0 0 0 22 0 93 65 0 0 0 0 0 0 0
0 0 0 0 0 96 0 0 0 0 0 0 61
0 0 0 0 0 0 32 0 60 0 0 0
0 0 78 8 0 0 0 29 93 0 0
0 0 0 0 27 0 0 0 0 0
0 96 75 92 52 0 0 3 0
0 0 0 0 0 36 0 84
0 0 0 86 58 0 0
0 0 0 79 0 56
0 0 0 0 50
0 0 64 0
0 0 0
0 0
0
0 0 0 11 0 93 66 0 0 36 69 6 0 66 3 16 0
0 17 0 0 0 0 45 0 33 0 0 0 0 0 0 75
0 0 0 25 0 0 0 0 0 0 70 22 0 98 56
0 0 0 0 0 0 0 0 0 0 11 0 0 0
0 71 0 0 0 0 0 0 22 0 0 0 0
0 0 0 0 0 99 4 0 0 59 11 0
0 0 21 100 0 0 0 79 0 0 76
0 0 13 0 0 0 0 0 0 0
0 0 0 54 0 73 0 0 93
0 0 0 0 85 0 55 0
0 49 0 0 90 0 0
0 0 0 0 0 0
0 46 37 0 0
0 2 0 0
0 100 0
0 69
0
0 16 49 0 73 0 11 61 0 0 0 0 0 0 2 0
0 0 0 67 0 0 0 0 0 0 0 47 0 0 15
0 0 0 0 0 55 0 85 1 0 0 0 0 99
0 33 76 77 0 0 82 0 0 0 0 83 42
0 41 0 0 0 87 0 0 0 53 0 0
0 0 0 94 0 0 0 0 0 0 72
0 0 59 29 0 0 47 0 0 0
0 0 0 0 0 0 0 0 0
0 0 0 0 16 88 0 0
0 0 61 0 0 98 0
0 0 0 0 0 0
0 0 0 0 0
0 0 43 0
0 0 0
0 0
0
0 0 0 0 0 0 0 0 0 0 0 12 0 0 0
0 1 0 0 0 0 0 0 11 89 0 1 0 0
0 49 0 0 0 0 0 0 0 94 0 0 98
0 0 0 0 0 0 0 0 0 0 0 42
0 0 0 0 73 0 48 0 0 41 73
0 0 0 0 0 0 0 0 0 0
0 0 0 0 0 0 0 0 0
0 38 0 0 0 0 0 0
0 17 0 11 0 0 0
0 48 0 0 0 0
0 8 0 83 0
0 61 0 0
0 17 53
0 0
0
0 39 53 0 0 0 0 91 0 0 0 65 0 0
0 0 0 91 70 0 0 0 0 52 73 0 0
0 37 13 0 0 0 0 0 0 0 0 0
0 0 73 0 0 0 40 0 0 0 26
0 0 0 0 0 0 0 0 80 0
0 0 0 0 0 15 0 0 30
0 0 0 0 0 0 0 0
0 91 50 0 0 4 0
0 0 0 79 0 46
0 0 0 74 0
0 44 0 0
0 59 0
0 34
0
0 73 0 0 0 0 0 0 0 0 82 0 0
0 0 0 0 79 0 0 0 0 0 5 0
0 0 0 0 0 0 0 0 0 0 83
0 0 0 0 0 8 6 0 0 0
0 0 0 0 0 0 0 65 0
0 100 0 0 0 0 0 0
0 0 14 17 0 20 0
0 0 0 0 90 0
0 62 38 0 0
0 0 0 0
0 0 3
0 0
0
0 0 0 0 56 0 0 14 0 0 47 0
0 50 0 0 96 67 0 0 0 0 0
0 0 0 0 0 0 86 13 0 0
0 0 0 0 89 0 97 0 0
0 0 0 0 0 0 37 0
0 37 0 0 0 0 0
0 0 0 0 0 0
0 0 6 0 0
0 0 94 0
0 0 0
0 0
0
0 0 96 0 0 0 81 0 0 67 0
0 0 74 80 0 0 0 0 0 0
0 0 0 0 92 0 0 0 0
0 0 0 0 0 53 99 0
0 0 75 0 0 0 0
0 0 0 100 0 0
0 0 0 0 68
0 0 0 0
0 0 0
0 0
0
0 0 0 51 0 0 0 0 53 61
0 0 0 0 0 0 0 53 0
0 0 0 69 19 0 0 18
0 0 0 47 0 0 0
0 0 0 67 81 0
0 91 29 0 0
0 0 0 0
0 23 5
0 0
0
0 94 61 0 0 0 0 0 45
0 0 97 0 0 0 0 0
0 99 0 0 0 0 0
0 0 0 0 0 0
0 0 50 0 0
0 0 0 0
0 52 0
0 0
0
0 11 0 56 75 0 0 0
0 82 0 0 0 0 0
0 0 0 0 0 0
0 0 0 0 13
0 0 0 0
0 98 0
0 0
0
0 0 0 0 0 0 0
0 0 0 35 0 0
0 0 0 0 46
0 0 0 0
0 0 91
0 0
0
0 94 86 0 0 0
0 0 0 45 28
0 0 0 72
0 0 0
0 0
0
0 0 0 14 0
0 0 58 0
0 0 14
0 0
0
0 0 0 50
0 21 0
0 0
0
0 0 0
0 0
0
0 26
0
0
2718 2579 2619 2719 2029 2487 2115 2804 2805 2793 2176 2796 2581 3162 2315 2364 2608 2530 2600 2161
154.4318181818182 197.31396825396826 144.33210702341137 240.2891462891463 584.1060606060606 155.08503401360545 79.48529411764706 136.4257050139403 145.21499060150376 72.18236418236417 62.858555218514766 84.97943722943722 137.87393162393164 122.96666666666665 59.83373243933588 553.1153846153846 66.93073961499493 926.8518518518518 94.21564482029599 96.73707264957265
